[[83, 82, 73, 74, 75, 76, 67, 68, 66, 59, 58, 57, 56, 64, 65, 55, 46, 47, 49, 50, 40, 48, 39, 38, 37, 28, 29, 30, 32, 41, 31, 21, 22, 19, 20, 10, 2, 11, 3, 12, 13, 4, 14, 5, 6, 7, 8, 9, 18, 17, 16, 15], [23, 24, 25, 26, 27, 35, 36, 44, 34, 33, 43, 42, 45, 54, 53, 52, 51, 60, 61, 62, 63, 72, 81, 71, 80, 70, 69, 78, 77, 79, 88, 89, 90, 99, 98, 97, 96, 87, 95, 86, 85, 84, 94, 93, 92, 91]]